set N := 1 2 3;
set M := 1 2 3;
param d :=
1 1 500
1 2 500
1 3 500
2 1 400
2 2 400
2 3 400
3 1 200
3 2 200
3 3 200;
param o :=
1 100
2 100
3 100;
param dc := 
1 100
2 200
3 200;
param dconst := 200;

